6
Lattice="21.951687664483195 0.0 0.0 0.0 22.305596993669624 0.0 0.0 0.0 22.613813307472082" Properties=species:S:1:pos:R:3:spacegroup_kinds:I:1 spacegroup="P 1" unit_cell=conventional occupancy="_JSON {\"0\": {\"C\": 1.0}, \"1\": {\"C\": 1.0}, \"2\": {\"C\": 1.0}, \"3\": {\"C\": 1.0}, \"4\": {\"C\": 1.0}, \"5\": {\"C\": 1.0}, \"6\": {\"C\": 1.0}, \"7\": {\"C\": 1.0}, \"8\": {\"C\": 1.0}, \"9\": {\"C\": 1.0}, \"10\": {\"C\": 1.0}, \"11\": {\"C\": 1.0}, \"12\": {\"C\": 1.0}, \"13\": {\"C\": 1.0}, \"14\": {\"C\": 1.0}, \"15\": {\"C\": 1.0}, \"16\": {\"C\": 1.0}, \"17\": {\"C\": 1.0}, \"18\": {\"C\": 1.0}, \"19\": {\"C\": 1.0}, \"20\": {\"C\": 1.0}, \"21\": {\"C\": 1.0}, \"22\": {\"C\": 1.0}, \"23\": {\"C\": 1.0}, \"24\": {\"C\": 1.0}, \"25\": {\"C\": 1.0}, \"26\": {\"C\": 1.0}, \"27\": {\"C\": 1.0}, \"28\": {\"C\": 1.0}, \"29\": {\"C\": 1.0}, \"30\": {\"C\": 1.0}, \"31\": {\"C\": 1.0}, \"32\": {\"C\": 1.0}, \"33\": {\"C\": 1.0}, \"34\": {\"C\": 1.0}, \"35\": {\"C\": 1.0}, \"36\": {\"C\": 1.0}, \"37\": {\"C\": 1.0}, \"38\": {\"C\": 1.0}, \"39\": {\"C\": 1.0}, \"40\": {\"C\": 1.0}, \"41\": {\"C\": 1.0}, \"42\": {\"C\": 1.0}, \"43\": {\"C\": 1.0}, \"44\": {\"C\": 1.0}, \"45\": {\"C\": 1.0}, \"46\": {\"C\": 1.0}, \"47\": {\"C\": 1.0}, \"48\": {\"C\": 1.0}, \"49\": {\"C\": 1.0}, \"50\": {\"C\": 1.0}, \"51\": {\"C\": 1.0}, \"52\": {\"C\": 1.0}, \"53\": {\"C\": 1.0}, \"54\": {\"C\": 1.0}, \"55\": {\"C\": 1.0}, \"56\": {\"C\": 1.0}, \"57\": {\"C\": 1.0}, \"58\": {\"C\": 1.0}, \"59\": {\"C\": 1.0}, \"60\": {\"C\": 1.0}, \"61\": {\"C\": 1.0}, \"62\": {\"C\": 1.0}, \"63\": {\"C\": 1.0}, \"64\": {\"C\": 1.0}, \"65\": {\"C\": 1.0}, \"66\": {\"C\": 1.0}, \"67\": {\"C\": 1.0}, \"68\": {\"C\": 1.0}, \"69\": {\"C\": 1.0}, \"70\": {\"C\": 1.0}, \"71\": {\"C\": 1.0}, \"72\": {\"C\": 1.0}, \"73\": {\"C\": 1.0}, \"74\": {\"C\": 1.0}, \"75\": {\"C\": 1.0}, \"76\": {\"C\": 1.0}, \"77\": {\"C\": 1.0}, \"78\": {\"C\": 1.0}, \"79\": {\"C\": 1.0}, \"80\": {\"C\": 1.0}, \"81\": {\"C\": 1.0}, \"82\": {\"C\": 1.0}, \"83\": {\"C\": 1.0}, \"84\": {\"C\": 1.0}, \"85\": {\"C\": 1.0}, \"86\": {\"C\": 1.0}, \"87\": {\"C\": 1.0}, \"88\": {\"C\": 1.0}, \"89\": {\"C\": 1.0}, \"90\": {\"C\": 1.0}, \"91\": {\"C\": 1.0}, \"92\": {\"C\": 1.0}, \"93\": {\"C\": 1.0}, \"94\": {\"C\": 1.0}, \"95\": {\"C\": 1.0}, \"96\": {\"C\": 1.0}, \"97\": {\"C\": 1.0}, \"98\": {\"C\": 1.0}, \"99\": {\"C\": 1.0}, \"100\": {\"C\": 1.0}, \"101\": {\"C\": 1.0}, \"102\": {\"C\": 1.0}, \"103\": {\"C\": 1.0}, \"104\": {\"C\": 1.0}, \"105\": {\"C\": 1.0}, \"106\": {\"C\": 1.0}, \"107\": {\"C\": 1.0}, \"108\": {\"C\": 1.0}, \"109\": {\"C\": 1.0}, \"110\": {\"C\": 1.0}, \"111\": {\"C\": 1.0}, \"112\": {\"C\": 1.0}, \"113\": {\"C\": 1.0}, \"114\": {\"C\": 1.0}, \"115\": {\"C\": 1.0}, \"116\": {\"C\": 1.0}, \"117\": {\"C\": 1.0}, \"118\": {\"C\": 1.0}, \"119\": {\"C\": 1.0}, \"120\": {\"C\": 1.0}, \"121\": {\"C\": 1.0}, \"122\": {\"C\": 1.0}, \"123\": {\"C\": 1.0}, \"124\": {\"C\": 1.0}, \"125\": {\"C\": 1.0}, \"126\": {\"C\": 1.0}, \"127\": {\"C\": 1.0}, \"128\": {\"C\": 1.0}, \"129\": {\"C\": 1.0}, \"130\": {\"C\": 1.0}, \"131\": {\"C\": 1.0}, \"132\": {\"C\": 1.0}, \"133\": {\"C\": 1.0}, \"134\": {\"C\": 1.0}, \"135\": {\"C\": 1.0}, \"136\": {\"C\": 1.0}, \"137\": {\"C\": 1.0}, \"138\": {\"C\": 1.0}, \"139\": {\"C\": 1.0}, \"140\": {\"C\": 1.0}, \"141\": {\"C\": 1.0}, \"142\": {\"C\": 1.0}, \"143\": {\"C\": 1.0}, \"144\": {\"C\": 1.0}, \"145\": {\"C\": 1.0}, \"146\": {\"C\": 1.0}, \"147\": {\"C\": 1.0}, \"148\": {\"C\": 1.0}, \"149\": {\"C\": 1.0}, \"150\": {\"C\": 1.0}, \"151\": {\"C\": 1.0}, \"152\": {\"C\": 1.0}, \"153\": {\"C\": 1.0}, \"154\": {\"C\": 1.0}, \"155\": {\"C\": 1.0}, \"156\": {\"C\": 1.0}, \"157\": {\"C\": 1.0}, \"158\": {\"C\": 1.0}, \"159\": {\"C\": 1.0}, \"160\": {\"C\": 1.0}, \"161\": {\"C\": 1.0}, \"162\": {\"C\": 1.0}, \"163\": {\"C\": 1.0}, \"164\": {\"C\": 1.0}, \"165\": {\"C\": 1.0}, \"166\": {\"C\": 1.0}, \"167\": {\"C\": 1.0}, \"168\": {\"C\": 1.0}, \"169\": {\"C\": 1.0}, \"170\": {\"C\": 1.0}, \"171\": {\"C\": 1.0}, \"172\": {\"C\": 1.0}, \"173\": {\"C\": 1.0}, \"174\": {\"C\": 1.0}, \"175\": {\"C\": 1.0}, \"176\": {\"C\": 1.0}, \"177\": {\"C\": 1.0}, \"178\": {\"C\": 1.0}, \"179\": {\"C\": 1.0}, \"180\": {\"C\": 1.0}, \"181\": {\"C\": 1.0}, \"182\": {\"C\": 1.0}, \"183\": {\"C\": 1.0}, \"184\": {\"C\": 1.0}, \"185\": {\"C\": 1.0}, \"186\": {\"C\": 1.0}, \"187\": {\"C\": 1.0}, \"188\": {\"Li\": 1}, \"189\": {\"S\": 1}, \"190\": {\"S\": 1}, \"191\": {\"S\": 1}, \"192\": {\"S\": 1}, \"193\": {\"Li\": 1}}" pbc="T T T"
Li      10.00000000      10.00000000      11.79711784      188
S       11.03756650      11.24507973      10.00000000      189
S       11.06433031      12.28779241      10.75364363      190
S       10.80111359      12.19102050      12.00954831      191
S       10.91412129      11.06051727      12.61381331      192
Li      11.95168766      12.30559699      10.81669559      193
